
Welcome to IBM(R) ILOG(R) CPLEX(R) Interactive Optimizer 22.1.1.0
  with Simplex, Mixed Integer & Barrier Optimizers
5725-A06 5725-A29 5724-Y48 5724-Y49 5724-Y54 5724-Y55 5655-Y21
Copyright IBM Corp. 1988, 2022.  All Rights Reserved.

Type 'help' for a list of available commands.
Type 'help' followed by a command name for more
information on commands.

CPLEX> Selected objective sense:  MINIMIZE
Selected objective  name:  00000000
Selected RHS        name:  RHS1
Selected bound      name:  BOUND
Problem 'ee.mps' read.
Read time = 0.03 sec. (3.17 ticks)
CPLEX> New value for time limit in seconds: 7200
CPLEX> New value for parallel optimization mode: -1
CPLEX> New value for default parallel thread count: 40
CPLEX> New value for mixed integer optimality gap tolerance: 1e-13
CPLEX> Version identifier: 22.1.1.0 | 2022-11-28 | 9160aff4d
CPXPARAM_Threads                                 40
CPXPARAM_Parallel                                -1
CPXPARAM_TimeLimit                               7200
CPXPARAM_MIP_Tolerances_MIPGap                   1e-13
Found incumbent of value 0.000000 after 0.00 sec. (0.31 ticks)
Tried aggregator 3 times.
MIP Presolve eliminated 759 rows and 3849 columns.
MIP Presolve modified 5787 coefficients.
Aggregator did 629 substitutions.
Reduced MIP has 3145 rows, 6849 columns, and 24832 nonzeros.
Reduced MIP has 6849 binaries, 0 generals, 0 SOSs, and 0 indicators.
Presolve time = 0.07 sec. (75.41 ticks)
Probing fixed 52 vars, tightened 0 bounds.
Probing time = 0.05 sec. (24.58 ticks)
Tried aggregator 2 times.
Detecting symmetries...
MIP Presolve eliminated 7 rows and 60 columns.
Aggregator did 10 substitutions.
Reduced MIP has 3128 rows, 6776 columns, and 24567 nonzeros.
Reduced MIP has 6776 binaries, 0 generals, 0 SOSs, and 0 indicators.
Presolve time = 0.03 sec. (35.78 ticks)
Probing time = 0.03 sec. (8.34 ticks)
Clique table members: 16190.
MIP emphasis: balance optimality and feasibility.
MIP search method: dynamic search.
Parallel mode: opportunistic, using up to 40 threads.
Root relaxation solution time = 0.11 sec. (93.91 ticks)

        Nodes                                         Cuts/
   Node  Left     Objective  IInf  Best Integer    Best Bound    ItCnt     Gap

*     0+    0                            0.0000  -1.54000e+13              --- 
*     0+    0                      -7.20000e+12  -1.54000e+13           113.89%
      0     0  -1.53900e+13    84  -7.20000e+12  -1.53900e+13     2223  113.75%
*     0+    0                      -9.60000e+12  -1.53900e+13            60.31%
*     0+    0                      -1.53900e+13  -1.53900e+13             0.00%
      0     0  -1.53900e+13   169  -1.53900e+13      Cuts: 79     2628    0.00%
*     0+    0                      -1.53900e+13  -1.53900e+13             0.00%
      0     0  -1.53900e+13   206  -1.53900e+13      Cuts: 93     2826    0.00%
*     0+    0                      -1.53900e+13  -1.53900e+13             0.00%
*     0+    0                      -1.53900e+13  -1.53900e+13             0.00%
      0     2  -1.53900e+13   190  -1.53900e+13  -1.53900e+13     2826    0.00%
Elapsed time = 2.00 sec. (1277.08 ticks, tree = 0.02 MB, solutions = 9)
*     5+   23                      -1.53900e+13  -1.53900e+13             0.00%
     88    42  -1.53900e+13   317  -1.53900e+13  -1.53900e+13    21399    0.00%
    242    36  -1.53900e+13   168  -1.53900e+13  -1.53900e+13    18113    0.00%
    602    91  -1.53900e+13   143  -1.53900e+13  -1.53900e+13    58520    0.00%
    996    97  -1.53900e+13   242  -1.53900e+13  -1.53900e+13    65166    0.00%
   1294   193  -1.53900e+13   223  -1.53900e+13  -1.53900e+13   115283    0.00%
   1659   261  -1.53900e+13   360  -1.53900e+13  -1.53900e+13   166389    0.00%
   1999   242        cutoff        -1.53900e+13  -1.53900e+13   149434    0.00%
   2334   349        cutoff        -1.53900e+13  -1.53900e+13   220393    0.00%
   2594   699  -1.53900e+13    69  -1.53900e+13  -1.53900e+13   487050    0.00%
   3613   708  -1.53900e+13    67  -1.53900e+13  -1.53900e+13   508109    0.00%
Elapsed time = 8.25 sec. (4390.52 ticks, tree = 3.72 MB, solutions = 29)
   4717  1194  -1.53900e+13   122  -1.53900e+13  -1.53900e+13   792480    0.00%
   6300  1157  -1.53900e+13   183  -1.53900e+13  -1.53900e+13   769945    0.00%
   7977  1351    infeasible        -1.53900e+13  -1.53900e+13   871497    0.00%
   9615  1479  -1.53900e+13   187  -1.53900e+13  -1.53900e+13   931991    0.00%
  10879  2434        cutoff        -1.53900e+13  -1.53900e+13  1399361    0.00%
  12071  2789        cutoff        -1.53900e+13  -1.53900e+13  1617115    0.00%
  13083  2892  -1.53900e+13   224  -1.53900e+13  -1.53900e+13  1672106    0.00%
  13909  3187        cutoff        -1.53900e+13  -1.53900e+13  1845525    0.00%
  14141  3375  -1.53900e+13   202  -1.53900e+13  -1.53900e+13  1981844    0.00%

Performing restart 1

Repeating presolve.
Tried aggregator 2 times.
MIP Presolve eliminated 806 rows and 2021 columns.
MIP Presolve added 22 rows and 0 columns.
MIP Presolve modified 2119 coefficients.
Aggregator did 288 substitutions.
Reduced MIP has 1995 rows, 4445 columns, and 15874 nonzeros.
Reduced MIP has 4445 binaries, 0 generals, 0 SOSs, and 0 indicators.
Presolve time = 0.05 sec. (48.00 ticks)
Tried aggregator 1 time.
Reduced MIP has 1995 rows, 4445 columns, and 15874 nonzeros.
Reduced MIP has 4445 binaries, 0 generals, 0 SOSs, and 0 indicators.
Presolve time = 0.02 sec. (11.58 ticks)
Represolve time = 0.14 sec. (95.77 ticks)
  14142     0  -1.53900e+13   280  -1.53900e+13      Cuts: 14  2593583    0.00%
  14142     0  -1.53900e+13   325  -1.53900e+13      Cuts: 33  2593957    0.00%
  14142     0  -1.53900e+13   263  -1.53900e+13      Cuts: 54  2594164    0.00%
  14142     0  -1.53900e+13   277  -1.53900e+13      Cuts: 23  2594268    0.00%
  14142     0  -1.53900e+13   262  -1.53900e+13      Cuts: 26  2594469    0.00%
  14142     0  -1.53900e+13   255  -1.53900e+13      Cuts: 10  2594529    0.00%
  14142     0  -1.53900e+13   246  -1.53900e+13      Cuts: 17  2594551    0.00%
  14142     0  -1.53900e+13   268  -1.53900e+13   ZeroHalf: 3  2594562    0.00%
  14142     0  -1.53900e+13   284  -1.53900e+13      Cuts: 19  2594612    0.00%
  14142    14        cutoff        -1.53900e+13  -1.53900e+13  2598018    0.00%
Elapsed time = 20.52 sec. (15378.81 ticks, tree = 0.02 MB, solutions = 36)
  14413    29  -1.53900e+13    50  -1.53900e+13  -1.53900e+13  2601226    0.00%

GUB cover cuts applied:  2
Clique cuts applied:  16
Cover cuts applied:  340
Flow cuts applied:  1
Mixed integer rounding cuts applied:  6
Zero-half cuts applied:  26
Lift and project cuts applied:  1
Gomory fractional cuts applied:  18

Root node processing (before b&c):
  Real time             =    1.34 sec. (1277.33 ticks)
Parallel b&c, 40 threads:
  Real time             =   19.68 sec. (15627.61 ticks)
  Sync time (average)   =    2.26 sec.
  Wait time (average)   =    0.07 sec.
                          ------------
Total (root+branch&cut) =   21.03 sec. (16904.95 ticks)

Solution pool: 37 solutions saved.

MIP - Integer optimal solution:  Objective = -1.5389998889e+13
Solution time =   21.12 sec.  Iterations = 2605849  Nodes = 14439
Deterministic time = 16904.98 ticks  (800.34 ticks/sec)

CPLEX> Solution 'p38' written to file 'ee.sol'.
CPLEX> 